db/inputs/295316706143743090049822593428246603.smt2
(set-logic QF_FP)
(declare-const x0 (_ FloatingPoint 11 53))
(declare-const x1 (_ FloatingPoint 11 53))
(declare-const x2 (_ FloatingPoint 11 53))
(declare-const x3 (_ FloatingPoint 11 53))
(assert (fp.eq (fp.neg x3) (fp.neg x2)))
(assert (fp.leq (fp.div RNE x1 x1) (fp.div RNE x2 x3)))
(assert (fp.geq (fp.div RNE x1 x2) (fp.add RNE x3 x0)))
(assert (fp.gt (fp.sub RNE x1 x0) (fp.add RNE x3 x3)))
(assert (fp.leq (fp.neg x1) (fp.mul RNE x1 x1)))
(assert (fp.eq (fp.sub RNE x3 x3) (fp.add RNE x3 x1)))
(assert (fp.geq (fp.mul RNE x1 x0) (fp.div RNE x1 x0)))
(assert (fp.lt (fp.sub RNE x2 x0) (fp.div RNE x1 x3)))
(assert (fp.leq (fp.neg x0) (fp.add RNE x2 x2)))
(assert (fp.geq (fp.div RNE x1 x3) (fp.mul RNE x0 x3)))
(assert (fp.eq (fp.neg x1) (fp.div RNE x1 x2)))
(assert (fp.lt (fp.div RNE x1 x2) (fp.add RNE x3 x0)))
(assert (fp.lt (fp.neg x1) (fp.sub RNE x3 x3)))
(check-sat)
