db/data/295316706143743090049822593428246603.z3.out
unsat
-------------------
467.646372706
